
Gurobi 10.0.1 (linux64) logging started Sun Nov 26 15:41:53 2023

Set parameter LogFile to value "ArtificialInstance/ExperimentV2/S3T3K1/BaDo/gurobi91.txt"
Gurobi Optimizer version 10.0.1 build v10.0.1rc0 (linux64)

CPU model: AMD EPYC 7H12 64-Core Processor, instruction set [SSE2|AVX|AVX2]
Thread count: 128 physical cores, 128 logical processors, using up to 32 threads

Academic license 656792 - for non-commercial use only - registered to b.___@student.vu.nl
Optimize a model with 210 rows, 400 columns and 1120 nonzeros
Model fingerprint: 0x82863c0f
Variable types: 0 continuous, 400 integer (400 binary)
Coefficient statistics:
  Matrix range     [1e+00, 1e+00]
  Objective range  [2e+00, 2e+01]
  Bounds range     [1e+00, 1e+00]
  RHS range        [1e+00, 1e+00]
Found heuristic solution: objective 173.3430968
Presolve time: 0.00s
Presolved: 210 rows, 400 columns, 1120 nonzeros
Variable types: 0 continuous, 400 integer (400 binary)

Root relaxation: objective 2.779175e+01, 177 iterations, 0.00 seconds (0.00 work units)

    Nodes    |    Current Node    |     Objective Bounds      |     Work
 Expl Unexpl |  Obj  Depth IntInf | Incumbent    BestBd   Gap | It/Node Time

     0     0   27.79175    0   42  173.34310   27.79175  84.0%     -    0s
H    0     0                      63.9353763   27.79175  56.5%     -    0s
H    0     0                      33.2906887   27.79175  16.5%     -    0s
     0     0   30.20768    0   42   33.29069   30.20768  9.26%     -    0s
     0     0   30.20768    0   36   33.29069   30.20768  9.26%     -    0s
     0     0   32.30389    0   30   33.29069   32.30389  2.96%     -    0s

Cutting planes:
  Gomory: 5
  Zero half: 8
  RLT: 1

Explored 1 nodes (360 simplex iterations) in 0.07 seconds (0.01 work units)
Thread count was 32 (of 128 available processors)

Solution count 3: 33.2907 63.9354 173.343 

Optimal solution found (tolerance 1.00e-04)
Best objective 3.329068866772e+01, best bound 3.329068866772e+01, gap 0.0000%
